CMD:
./solvers/bin/cadical --plain --no-reduce -t 1600 ./data/cnfs//nusmvreactorp3/nusmvreactorp3.13.cnf

c --- [ banner ] -------------------------------------------------------------
c 
c CaDiCaL SAT Solver
c Copyright (c) 2016-2024
c A. Biere, M. Fleury, N. Froleyks, K. Fazekas, F. Pollitt, T. Faller
c JKU Linz, University of Freiburg, TU Wien
c 
c Version 2.1.3 5296d3d2a9bf48c154ab2acb5e44625776d821bf
c g++ (Gentoo 12.3.1_p20230526 p2) 12.3.1 20230526 -Wall -Wextra -O3 -DNDEBUG
c Sat Aug 9 07:26:21 PDT 2025 Linux cedar2.int.cedar.computecanada.ca 5.14.0-362.24.2.el9_3.x86_64 x86_64
c 
c --- [ limit ] --------------------------------------------------------------
c 
c setting time limit to 1600 seconds real time (due to '-t 1600')
c 
c --- [ parsing input ] ------------------------------------------------------
c 
c reading DIMACS file from './data/cnfs//nusmvreactorp3/nusmvreactorp3.13.cnf'
c opening file to read './data/cnfs//nusmvreactorp3/nusmvreactorp3.13.cnf'
c found 'p cnf 18281 51609' header
c parsed 51609 clauses in 0.01 seconds process time
c 
c --- [ options ] ------------------------------------------------------------
c 
c   --compact=false                (different from default 'true')
c   --decompose=false              (different from default 'true')
c   --deduplicate=false            (different from default 'true')
c   --elim=false                   (different from default 'true')
c   --probe=false                  (different from default 'true')
c   --reduce=false                 (different from default 'true')
c   --subsume=false                (different from default 'true')
c   --ternary=false                (different from default 'true')
c   --transred=false               (different from default 'true')
c   --vivify=false                 (different from default 'true')
c 
c --- [ solving ] ------------------------------------------------------------
c 
c time measured in process time since initialization
c 
c  seconds  reductions  redundant  irredundant
c         MB    restarts       trail      variables
c          level   conflicts       glue        remaining
c 
c *  0.01 12  0 0   0    0    0  0% 0 50257 13335 73%
c {  0.01 12  0 0   0    0    0  0% 0 50257 13335 73%
c i  0.01 12 69 0   0    9    7 36% 1 50257 13327 73%
c i  0.01 12 67 0   0   10    7 37% 1 50257 13319 73%
c i  0.01 12 71 0   0   14   10 41% 1 50257 13302 73%
c i  0.01 12 73 0   0   16   11 43% 2 50257 13292 73%
c i  0.01 12 73 0   0   17   11 43% 1 50257 13276 73%
c i  0.01 12 74 0   0   19   12 44% 1 50257 13266 73%
c i  0.01 12 75 0   0   30   21 44% 1 50257 13265 73%
c i  0.01 12 74 0   0   33   23 43% 1 50257 13263 73%
c i  0.01 12 74 0   0   34   23 43% 1 50257 13259 73%
c i  0.01 12 74 0   0   36   24 43% 1 50257 13230 72%
c i  0.01 12 72 0   0   40   26 42% 1 50257 13228 72%
c i  0.01 12 71 0   0   45   29 42% 1 50257 13152 72%
c i  0.01 12 71 0   0   46   29 41% 1 50257 13148 72%
c i  0.01 12 70 0   0   50   32 41% 1 50257 13045 71%
c i  0.01 12 69 0   0   51   32 41% 1 50257 12877 70%
c }  0.01 12 69 0   0   55   33 40% 1 50257 12755 70%
c 0  0.01 12 69 0   0   55   33 40% 1 50257 12755 70%
c 
c --- [ result ] -------------------------------------------------------------
c 
s UNSATISFIABLE
c 
c --- [ run-time profiling ] -------------------------------------------------
c 
c process time taken by individual solving procedures
c (percentage relative to process time for solving)
c 
c         0.01  282.68% parse
c         0.00   96.23% search
c         0.00   81.72% unstable
c         0.00   13.95% lucky
c         0.00    0.00% simplify
c   =================================
c         0.00   24.93% solve
c 
c last line shows process time for solving
c (percentage relative to total process time)
c 
c --- [ statistics ] ---------------------------------------------------------
c 
c chronological:                36        65.45 %  of conflicts
c conflicts:                    55     15466.82    per second
c decisions:                   187     52587.18    per second
c fixed:                      5526        30.23 %  of all variables
c learned:                      50        90.91 %  per conflict
c learned_lits:                199       100.00 %  learned literals
c minimized:                     0         0.00 %  learned literals
c shrunken:                     29        14.57 %  learned literals
c minishrunken:                 18         9.05 %  learned literals
c otfs:                          5         9.09 %  of conflict
c propagations:              37419        10.52 M  per second
c subsumed:                      1         0.00 %  of all clauses
c strengthened:                  5         0.01 %  of all clauses
c 
c seconds are measured in process time for solving
c 
c --- [ resources ] ----------------------------------------------------------
c 
c total process time since initialization:         0.01    seconds
c total real time since initialization:            0.02    seconds
c maximum resident set size of process:           29.32    MB
c 
c --- [ shutting down ] ------------------------------------------------------
c 
c exit 20
